Sat 19 May 19:12:03 CEST 2018
CPXPARAM_TimeLimit                               45
CPXPARAM_Threads                                 1
CPXPARAM_MIP_Strategy_CallbackReducedLP          0
Tried aggregator 2 times.
MIP Presolve eliminated 81 rows and 84 columns.
Aggregator did 54 substitutions.
Reduced MIP has 78 rows, 85 columns, and 186 nonzeros.
Reduced MIP has 81 binaries, 4 generals, 0 SOSs, and 18 indicators.
Presolve time = 0.00 sec. (0.29 ticks)
Found incumbent of value 3.000000 after 0.00 sec. (0.74 ticks)
Probing time = 0.00 sec. (0.16 ticks)
Cover probing fixed 0 vars, tightened 4 bounds.
Tried aggregator 3 times.
MIP Presolve modified 18 coefficients.
Aggregator did 36 substitutions.
Reduced MIP has 51 rows, 49 columns, and 132 nonzeros.
Reduced MIP has 45 binaries, 4 generals, 0 SOSs, and 9 indicators.
Presolve time = 0.00 sec. (0.21 ticks)
Probing time = 0.00 sec. (0.07 ticks)
Tried aggregator 2 times.
Aggregator did 9 substitutions.
Reduced MIP has 42 rows, 40 columns, and 114 nonzeros.
Reduced MIP has 36 binaries, 4 generals, 0 SOSs, and 9 indicators.
Presolve time = 0.00 sec. (0.19 ticks)
Probing time = 0.00 sec. (0.05 ticks)
Clique table members: 75.
MIP emphasis: balance optimality and feasibility.
MIP search method: dynamic search.
Parallel mode: none, using 1 thread.
Root relaxation solution time = 0.00 sec. (0.06 ticks)

        Nodes                                         Cuts/
   Node  Left     Objective  IInf  Best Integer    Best Bound    ItCnt     Gap

*     0+    0                            3.0000        1.0000            66.67%
      0     0        1.0000     9        3.0000        1.0000        3   66.67%
      0     0        1.0000     3        3.0000      Cuts: 17       16   66.67%
      0     0        1.0000     1        3.0000      Cuts: 12       19   66.67%
*     0     0      integral     0        1.0000   Impl Bds: 5       23    0.00%
      0     0        cutoff              1.0000        1.0000       23    0.00%
Elapsed time = 0.01 sec. (2.06 ticks, tree = 0.01 MB, solutions = 2)

Clique cuts applied:  2
Implied bound cuts applied:  27

Root node processing (before b&c):
  Real time             =    0.01 sec. (2.07 ticks)
Sequential b&c:
  Real time             =    0.00 sec. (0.00 ticks)
                          ------------
Total (root+branch&cut) =    0.01 sec. (2.07 ticks)
  | W
L | 0 1 2 
----------
0 | 3 1 2 
1 | . . . 
2 | . . . 

Boxes' corners:      (w,l)
    Box 1 is at 
        top left     (1,0)
        bottom right (1,0)

    Box 2 is at 
        top left     (2,0)
        bottom right (2,0)

    Box 3 is at 
        top left     (0,0)
        bottom right (0,0)

    Roll length used: 1
In 0 seconds
